(set-logic QF_UF)
(declare-fun A0 () Bool)
(declare-fun A1 () Bool)
(declare-fun A2 () Bool)
(declare-fun A3 () Bool)
(declare-fun A4 () Bool)
(declare-fun A6 () Bool)
(declare-fun A7 () Bool)
(declare-fun A9 () Bool)
(declare-fun A10 () Bool)
(declare-fun A11 () Bool)
(declare-fun A12 () Bool)
(declare-fun A13 () Bool)
(declare-fun A14 () Bool)
(declare-fun A15 () Bool)
(declare-fun A16 () Bool)
(declare-fun A17 () Bool)
(declare-fun A18 () Bool)
(declare-fun A19 () Bool)
(declare-fun A20 () Bool)
(declare-fun A21 () Bool)
(declare-fun A24 () Bool)
(declare-fun A25 () Bool)
(declare-fun A26 () Bool)
(declare-fun A27 () Bool)
(declare-fun A28 () Bool)
(declare-fun A29 () Bool)
(assert (let ((.def_0 (not A20))) (let ((.def_1 (and A12 .def_0))) (let ((.def_2 (not .def_1))) (let ((.def_3 (or A7 A29))) (let ((.def_4 (and .def_3 .def_2))) (let ((.def_5 (not .def_4))) (let ((.def_6 (not A4))) (let ((.def_7 (and .def_6 A10))) (let ((.def_8 (not .def_7))) (let ((.def_9 (not A16))) (let ((.def_10 (or .def_9 A12))) (let ((.def_11 (or .def_10 .def_8))) (let ((.def_12 (or .def_11 .def_5))) (let ((.def_13 (not A21))) (let ((.def_14 (not A9))) (let ((.def_15 (and .def_14 .def_13))) (let ((.def_16 (not A0))) (let ((.def_17 (not A29))) (let ((.def_18 (or .def_17 .def_16))) (let ((.def_19 (not .def_18))) (let ((.def_20 (and .def_19 .def_15))) (let ((.def_21 (not A14))) (let ((.def_22 (or .def_9 .def_21))) (let ((.def_23 (and A24 A27))) (let ((.def_24 (or .def_23 .def_22))) (let ((.def_25 (not .def_24))) (let ((.def_26 (or .def_25 .def_20))) (let ((.def_27 (not .def_26))) (let ((.def_28 (or .def_27 .def_12))) (let ((.def_29 (not .def_28))) (let ((.def_30 (not A2))) (let ((.def_31 (and .def_30 A28))) (let ((.def_32 (not A1))) (let ((.def_33 (or A10 .def_32))) (let ((.def_34 (not .def_33))) (let ((.def_35 (or .def_34 .def_31))) (let ((.def_36 (or .def_13 A1))) (let ((.def_37 (or A2 .def_32))) (let ((.def_38 (or .def_37 .def_36))) (let ((.def_39 (and .def_38 .def_35))) (let ((.def_40 (and A6 A28))) (let ((.def_41 (not A10))) (let ((.def_42 (and .def_41 A20))) (let ((.def_43 (and .def_42 .def_40))) (let ((.def_44 (= A29 A18))) (let ((.def_45 (not .def_44))) (let ((.def_46 (and .def_21 .def_6))) (let ((.def_47 (and .def_46 .def_45))) (let ((.def_48 (and .def_47 .def_43))) (let ((.def_49 (not .def_48))) (let ((.def_50 (and .def_49 .def_39))) (let ((.def_51 (not .def_50))) (let ((.def_52 (or .def_51 .def_29))) (let ((.def_53 (not .def_52))) (let ((.def_54 (not A25))) (let ((.def_55 (and .def_54 A19))) (let ((.def_56 (and .def_16 A4))) (let ((.def_57 (and .def_56 .def_55))) (let ((.def_58 (not A6))) (let ((.def_59 (and .def_58 A0))) (let ((.def_60 (not A28))) (let ((.def_61 (or .def_60 .def_0))) (let ((.def_62 (not .def_61))) (let ((.def_63 (or .def_62 .def_59))) (let ((.def_64 (not .def_63))) (let ((.def_65 (and .def_64 .def_57))) (let ((.def_66 (not A13))) (let ((.def_67 (or A24 .def_66))) (let ((.def_68 (not A15))) (let ((.def_69 (or A6 .def_68))) (let ((.def_70 (not .def_69))) (let ((.def_71 (and .def_70 .def_67))) (let ((.def_72 (or A9 A18))) (let ((.def_73 (not A19))) (let ((.def_74 (or .def_73 .def_73))) (let ((.def_75 (= .def_74 .def_72))) (let ((.def_76 (and .def_75 .def_71))) (let ((.def_77 (and .def_76 .def_65))) (let ((.def_78 (not A12))) (let ((.def_79 (not A17))) (let ((.def_80 (and .def_79 .def_78))) (let ((.def_81 (and A13 A10))) (let ((.def_82 (not .def_81))) (let ((.def_83 (and .def_82 .def_80))) (let ((.def_84 (or .def_16 A11))) (let ((.def_85 (not A26))) (let ((.def_86 (= .def_16 .def_85))) (let ((.def_87 (and .def_86 .def_84))) (let ((.def_88 (and .def_87 .def_83))) (let ((.def_89 (or A4 A19))) (let ((.def_90 (not .def_89))) (let ((.def_91 (not A3))) (let ((.def_92 (and .def_91 .def_13))) (let ((.def_93 (or .def_92 .def_90))) (let ((.def_94 (or A26 A16))) (let ((.def_95 (not .def_94))) (let ((.def_96 (or A19 A28))) (let ((.def_97 (or .def_96 .def_95))) (let ((.def_98 (and .def_97 .def_93))) (let ((.def_99 (or .def_98 .def_88))) (let ((.def_100 (or .def_99 .def_77))) (let ((.def_101 (and .def_100 .def_53))) .def_101)))))))))))))))))))))))))))))))))))))))))))))))))))))))))))))))))))))))))))))))))))))))))))))))))))))))
(check-sat)
